25 50
1 2 3
1 6 1
2 3 5
2 7 5
3 4 2
3 8 1
4 5 5
4 9 4
5 10 5
6 7 5
6 11 3
7 8 3
7 12 1
8 9 2
8 13 2
9 10 1
9 14 5
10 15 2
11 12 5
11 16 5
12 13 5
12 17 2
13 14 2
13 18 1
14 15 1
14 19 5
15 20 3
16 17 2
16 21 4
17 18 5
17 22 3
18 19 1
18 23 3
19 20 2
19 24 5
20 25 3
21 22 3
22 23 2
23 24 3
24 25 3
1 21 5
2 22 3
3 23 5
4 24 1
5 25 3
1 5 4
6 10 2
11 15 3
16 20 1
21 25 3
